n=20;
demand=2;
horizon=20;
est=[1,18,6,13,16,3,9,0,0,6,7,14,12,10,14,14,17,13,6,13];
processing_time=[7,1,11,1,2,5,10,6,7,6,12,2,2,1,2,2,3,4,9,5];
lct=[13,19,19,15,20,16,19,11,12,17,19,17,20,19,20,16,20,20,18,18];